25 350
  0     40.0     50.0       0.0     3390.0      0.0       0.0       0.0  
  1     52.0     75.0       0.0     3272.0     90.0       9.0      10.0  
  2     45.0     70.0       0.0     3279.0     90.0      16.0      30.0  
  3     62.0     69.0       0.0     3270.0     90.0       4.0      10.0  
  4     60.0     66.0     1261.0    1421.0     90.0       1.0      10.0  
  5     42.0     65.0       0.0     3284.0     90.0       6.0      10.0  
  6     16.0     42.0       0.0     3274.0     90.0      12.0      20.0  
  7     58.0     70.0       0.0     3273.0     90.0       1.0      20.0  
  8     34.0     60.0     2887.0    3047.0     90.0      12.0      20.0  
  9     28.0     70.0     2601.0    2761.0     90.0       6.0      10.0  
 10     35.0     66.0       0.0     3283.0     90.0       7.0      10.0  
 11     35.0     69.0     2698.0    2858.0     90.0       6.0      10.0  
 12     25.0     85.0       0.0     3261.0     90.0       4.0      20.0  
 13     22.0     75.0     2405.0    2565.0     90.0      14.0      30.0  
 14     22.0     85.0       0.0     3260.0     90.0       1.0      10.0  
 15     20.0     80.0     2216.0    2376.0     90.0       1.0      40.0  
 16     20.0     85.0       0.0     3259.0     90.0      28.0      40.0  
 17     18.0     75.0       0.0     3266.0     90.0       1.0      20.0  
 18     15.0     75.0       0.0     3264.0     90.0      17.0      20.0  
 19     15.0     80.0       0.0     3260.0     90.0       9.0      10.0  
 20     30.0     50.0       0.0     3290.0     90.0       6.0      10.0  
 21     30.0     56.0       0.0     3288.0     90.0       9.0      20.0  
 22     28.0     52.0       0.0     3287.0     90.0      19.0      20.0  
 23     14.0     66.0     1643.0    1803.0     90.0       1.0      10.0  
 24     25.0     50.0       0.0     3285.0     90.0       4.0      10.0  
 25     22.0     66.0     2504.0    2664.0     90.0       3.0      40.0  
